N = 11;
H = 5;
T = 2;

avail = array3d(1..N, 1..H, 1..T, [5, 10, 10, 0, 8, 4, 7, 7, 0, 7, 0, 7, 3, 4, 4, 1, 9, 0, 1, 2, 0, 0, 2, 1, 10, 0, 5, 8, 10, 3, 4, 0, 6, 4, 1, 6, 9, 9, 8, 6, 7, 2, 5, 5, 9, 10, 1, 7, 8, 5, 10, 3, 8, 9, 5, 1, 1, 0, 10, 0, 0, 7, 4, 1, 5, 10, 7, 5, 9, 6, 0, 1, 8, 6, 4, 3, 0, 5, 4, 1, 7, 10, 1, 0, 1, 10, 1, 1, 0, 3, 0, 6, 4, 9, 10, 3, 0, 7, 3, 9, 3, 1, 7, 8, 1, 6, 6, 10, 4, 6]);

r = array2d(1..H, 1..T, [1, 3, 4, 3, 2, 5, 3, 2, 2, 3]);
